submitit INFO (2023-05-02 20:04:34,852) - Starting with JobEnvironment(job_id=27758, hostname=cpunode3, local_rank=3(5), node=0(1), global_rank=3(5))
submitit INFO (2023-05-02 20:04:34,852) - Loading pickle: /h/30/pashootan/Matrix-Mult-CP/src/../logs/4/2x3x2_11_May02_20:04:32/27758_submitted.pkl
 ! --------------------------------------------------- CP Optimizer 22.1.1.0 --
 ! Satisfiability problem - 176 variables, 144 constraints
 ! TimeLimit            = 7200
 ! Workers              = 8
 ! LogPeriod            = 10000000
 ! RandomSeed           = 6817
 ! Initial process time : 0.02s (0.02s extraction + 0.00s propagation)
 !  . Log search space  : 279.0 (before), 279.0 (after)
 !  . Memory usage      : 949.5 kB (before), 949.5 kB (after)
 ! Using parallel search with 8 workers.
 ! ----------------------------------------------------------------------------
 !               Branches  Non-fixed    W       Branch decision
                   10000k          4    1        -1  = W10_3
                   10000k          4    6         1 != W10_1
                   10000k          4    2   F    -1  = U2_5
                   10000k          4    5        -1  = U10_0
                   10000k          3    4         0  = W4_3
                   10000k          6    8   F     0 != U2_3
                   10000k         18    3         1 != U3_3
                   10000k         18    7         0  = V5_1
 *                 11277k  133.29s      5        -1  = V1_5
 ! ----------------------------------------------------------------------------
 ! Search completed, 1 solution found.
 ! ----------------------------------------------------------------------------
 ! Number of branches     : 89966252
 ! Number of fails        : 41816771
 ! Total memory usage     : 81.7 MB (81.7 MB CP Optimizer + 0.1 MB Concert)
 ! Time spent in solve    : 133.29s (133.28s engine + 0.02s extraction)
 ! Search speed (br. / s) : 675016.9
 ! ----------------------------------------------------------------------------
Feasible
Model is valid
Saving solution to: /h/30/pashootan/Matrix-Mult-CP/logs/4/2x3x2_11_May02_20:04:32/27758_3_solution.txt
Saving stats to: /h/30/pashootan/Matrix-Mult-CP/logs/4/2x3x2_11_May02_20:04:32/27758_3_stats.csv
submitit INFO (2023-05-02 20:06:48,847) - Job completed successfully
